N = 11;
H = 6;
T = 2;

avail = array3d(1..N, 1..H, 1..T, [9, 1, 0, 8, 1, 6, 8, 4, 2, 4, 8, 9, 0, 9, 2, 5, 7, 0, 1, 7, 2, 7, 0, 9, 6, 3, 8, 9, 5, 0, 10, 10, 1, 8, 0, 6, 1, 8, 8, 6, 2, 5, 5, 9, 5, 7, 9, 7, 3, 3, 7, 6, 3, 4, 7, 7, 9, 8, 9, 7, 4, 0, 10, 6, 1, 5, 2, 4, 1, 9, 2, 4, 10, 3, 9, 6, 10, 8, 7, 2, 7, 2, 8, 4, 3, 4, 9, 10, 3, 1, 8, 3, 7, 3, 0, 10, 5, 1, 6, 9, 3, 10, 7, 9, 4, 2, 6, 6, 3, 7, 7, 5, 4, 4, 2, 5, 5, 0, 0, 4, 3, 10, 7, 10, 10, 9, 10, 5, 10, 4, 9, 9]);

r = array2d(1..H, 1..T, [4, 6, 4, 4, 3, 5, 3, 3, 1, 3, 3, 2]);
